28396
26944
6968
4847
14715
23132
21169
26115
24766
3870
3384
29855
4403
16924
27348
3387
20535
20059
15399
10468
9179
4495
30577
21380
4243
25133
30903
18355
24551
14413
23520
26691
16993
7036
9855
24142
32526
5160
21685
25287
1889
11844
4503
21629
2579
4572
13712
7678
4707
14500
16282
11322
16590
19379
26559
27182
340
15620
30121
21942
21485
31915
22997
12318
16793
11305
30434
30733
8032
30035
10036
26431
255
6426
1969
6179
15677
30798
30913
1242
3259
21289
20130
28382
26371
3866
4817
23776
918
10797
11007
2135
11613
19252
17705
15833
3304
26897
27369
253
